webassembly/ejemplos_dzn/11/folder11_json_17.dzn
TERM = { '.', 's(2)', 's(4)', 'in_1', 'local_0', 'local_1', 'in_6', 'in_2', 'in_4', 'in_3', 'in_8', 's(1)', 's(0)', 'in_7', 'in_5', 's(3)', 'in_0'};
null = '.';
s = 11;
n = 14;
ndeps = 6;
max_registers_sz = 5;
NR = 2;
registers = [|'local_0', 'in_1', |'local_1', 's(4)'|];
dependencies = [|'i32.load16_s_0', 'i32.store_6', |'i32.store_6', 'i32.store8_7', |'i32.store8_7', 'i32.store16_10', |'i32.load8_u_1', 'i32.store_6', |'i32.load16_u_4', 'i32.store_6', |'i32.load8_u_5', 'i32.store_6'|];
GET_ENUM = { GET1, GET2, GET3, GET4, GET5, GET6, GET7};
SET_ENUM = { SET1, SET2, SET3, SET4, SET5, SET6, SET7};
TEE_ENUM = { TEE1, TEE2, TEE3, TEE4, TEE5, TEE6, TEE7};
N = 8;
OP = { 'i32.load16_s_0', 'i32.load8_u_1', 'i32.load16_u_4', 'i32.load8_u_5', 'i32.store_6', 'i32.store8_7', 'i32.store16_10', 'i32.add_0' };
in_ops = [1, 1, 1, 1, 2, 2, 2, 2 ];
out_ops = [1, 1, 1, 1, 0, 0, 0, 1 ];
in1 = ['in_0', 's(0)', 'in_1', 's(2)', 's(3)', 'in_3', 'in_7', 'in_5' ];
in2 = ['.', '.', '.', '.', 'in_2', 'in_4', 'in_8', 'in_6' ];
in3 = ['.', '.', '.', '.', '.', '.', '.', '.' ];
out1 = ['s(0)', 's(1)', 's(2)', 's(3)', '.', '.', '.', 's(4)' ];
out2 = ['.', '.', '.', '.', '.', '.', '.', '.' ];
out3 = ['.', '.', '.', '.', '.', '.', '.', '.' ];
comm = [false, false, false, false, false, false, false, true ];
gas = [1, 1, 1, 1, 1, 1, 1, 1 ];
sz = [1, 1, 1, 1, 1, 1, 1, 1 ];
stor = [false, false, false, false, true, true, true, false ];
lb = [ 1, 1, 1, 1, 1, 1, 1, 1 ];
ub = [ 11, 11, 11, 11, 11, 11, 11, 11 ];
startstack = [ 'in_0', 'in_1', 'in_2', 'in_3', 'in_4', 'in_5', 'in_6', 'in_7', 'in_8', null, null, null, null, null ];
endstack = [ null, null, null, null, null, null, null, null, null, null, null, null, null, null ];
